\Problem name: BPFO_2

Minimize
OBJROW:
Subject To
Bounds
 0 <= r(0) <= 1
 0 <= r(1) <= 1
 0 <= r(2) <= 1
 0 <= r(3) <= 1
 0 <= r(4) <= 1
 0 <= r(5) <= 1
 0 <= r(6) <= 1
 0 <= r(7) <= 1
 0 <= r(8) <= 1
 0 <= r(9) <= 1
 0 <= r(10) <= 1
 0 <= r(11) <= 1
 0 <= r(12) <= 1
 0 <= r(13) <= 1
 0 <= r(14) <= 1
 0 <= r(15) <= 1
 0 <= r(16) <= 1
 0 <= r(17) <= 1
 0 <= r(18) <= 1
 0 <= r(19) <= 1
 0 <= r(20) <= 1
 0 <= r(21) <= 1
 0 <= r(22) <= 1
 0 <= r(23) <= 1
 0 <= r(24) <= 1
 0 <= r(25) <= 1
 0 <= z(0) <= 1
 0 <= z(1) <= 1
 0 <= z(2) <= 1
 0 <= z(3) <= 1
 0 <= z(4) <= 1
 0 <= z(5) <= 1
 0 <= z(6) <= 1
 0 <= z(7) <= 1
 0 <= z(8) <= 1
 0 <= z(9) <= 1
 0 <= z(10) <= 1
 0 <= z(11) <= 1
 0 <= z(12) <= 1
 0 <= z(13) <= 1
 0 <= z(14) <= 1
 0 <= z(15) <= 1
 0 <= z(16) <= 1
 0 <= z(17) <= 1
 0 <= z(18) <= 1
 0 <= z(19) <= 1
 0 <= z(20) <= 1
 0 <= z(21) <= 1
 0 <= z(22) <= 1
 0 <= z(23) <= 1
 0 <= z(24) <= 1
 0 <= z(25) <= 1
 0 <= z(26) <= 1
 0 <= z(27) <= 1
 0 <= z(28) <= 1
 0 <= z(29) <= 1
 0 <= z(30) <= 1
 0 <= z(31) <= 1
 0 <= z(32) <= 1
 0 <= z(33) <= 1
 0 <= z(34) <= 1
 0 <= z(35) <= 1
 0 <= z(36) <= 1
 0 <= z(37) <= 1
 0 <= z(38) <= 1
 0 <= z(39) <= 1
 0 <= z(40) <= 1
 0 <= z(41) <= 1
 0 <= z(42) <= 1
 0 <= z(43) <= 1
 0 <= z(44) <= 1
 0 <= z(45) <= 1
 0 <= z(46) <= 1
 0 <= z(47) <= 1
 0 <= z(48) <= 1
 0 <= z(49) <= 1
 0 <= z(50) <= 1
 0 <= z(51) <= 1
 0 <= z(52) <= 1
 0 <= z(53) <= 1
 0 <= z(54) <= 1
 0 <= z(55) <= 1
 0 <= z(56) <= 1
 0 <= z(57) <= 1
 0 <= z(58) <= 1
 0 <= z(59) <= 1
 0 <= z(60) <= 1
 0 <= z(61) <= 1
 0 <= z(62) <= 1
 0 <= z(63) <= 1
 0 <= z(64) <= 1
 0 <= z(65) <= 1
 0 <= z(66) <= 1
 0 <= z(67) <= 1
 0 <= z(68) <= 1
 0 <= z(69) <= 1
 0 <= z(70) <= 1
 0 <= z(71) <= 1
 0 <= z(72) <= 1
 0 <= z(73) <= 1
 0 <= z(74) <= 1
 0 <= z(75) <= 1
 0 <= z(76) <= 1
 0 <= z(77) <= 1
 0 <= z(78) <= 1
 0 <= z(79) <= 1
 0 <= z(80) <= 1
 0 <= z(81) <= 1
 0 <= z(82) <= 1
 0 <= z(83) <= 1
 0 <= z(84) <= 1
 0 <= z(85) <= 1
 0 <= z(86) <= 1
 0 <= z(87) <= 1
 0 <= z(88) <= 1
 0 <= z(89) <= 1
 0 <= z(90) <= 1
 0 <= z(91) <= 1
 0 <= z(92) <= 1
 0 <= z(93) <= 1
 0 <= z(94) <= 1
 0 <= z(95) <= 1
 0 <= z(96) <= 1
 0 <= z(97) <= 1
 0 <= z(98) <= 1
 0 <= z(99) <= 1
 0 <= z(100) <= 1
 0 <= z(101) <= 1
 0 <= z(102) <= 1
 0 <= z(103) <= 1
 0 <= z(104) <= 1
 0 <= z(105) <= 1
 0 <= z(106) <= 1
 0 <= z(107) <= 1
 0 <= z(108) <= 1
 0 <= z(109) <= 1
 0 <= z(110) <= 1
 0 <= z(111) <= 1
 0 <= z(112) <= 1
 0 <= z(113) <= 1
 0 <= z(114) <= 1
 0 <= z(115) <= 1
 0 <= z(116) <= 1
 0 <= z(117) <= 1
 0 <= z(118) <= 1
 0 <= z(119) <= 1
 0 <= z(120) <= 1
 0 <= z(121) <= 1
 0 <= z(122) <= 1
 0 <= z(123) <= 1
 0 <= z(124) <= 1
 0 <= z(125) <= 1
 0 <= z(126) <= 1
 0 <= z(127) <= 1
 0 <= z(128) <= 1
 0 <= z(129) <= 1
 0 <= z(130) <= 1
 0 <= z(131) <= 1
 0 <= z(132) <= 1
 0 <= z(133) <= 1
 0 <= z(134) <= 1
 0 <= z(135) <= 1
 0 <= z(136) <= 1
 0 <= z(137) <= 1
 0 <= z(138) <= 1
 0 <= z(139) <= 1
 0 <= z(140) <= 1
 0 <= z(141) <= 1
 0 <= z(142) <= 1
 0 <= z(143) <= 1
 0 <= z(144) <= 1
 0 <= z(145) <= 1
 0 <= z(146) <= 1
 0 <= z(147) <= 1
 0 <= z(148) <= 1
 0 <= z(149) <= 1
 0 <= z(150) <= 1
 0 <= z(151) <= 1
 0 <= z(152) <= 1
 0 <= z(153) <= 1
 0 <= z(154) <= 1
 0 <= z(155) <= 1
 0 <= z(156) <= 1
 0 <= z(157) <= 1
 0 <= z(158) <= 1
 0 <= z(159) <= 1
 0 <= z(160) <= 1
 0 <= z(161) <= 1
 0 <= z(162) <= 1
 0 <= z(163) <= 1
 0 <= z(164) <= 1
 0 <= z(165) <= 1
 0 <= z(166) <= 1
 0 <= z(167) <= 1
 0 <= z(168) <= 1
 0 <= z(169) <= 1
 0 <= z(170) <= 1
 0 <= z(171) <= 1
 0 <= z(172) <= 1
 0 <= z(173) <= 1
 0 <= z(174) <= 1
 0 <= z(175) <= 1
 0 <= z(176) <= 1
 0 <= z(177) <= 1
 0 <= z(178) <= 1
 0 <= z(179) <= 1
 0 <= z(180) <= 1
 0 <= z(181) <= 1
 0 <= z(182) <= 1
 0 <= z(183) <= 1
 0 <= z(184) <= 1
 0 <= z(185) <= 1
 0 <= z(186) <= 1
 0 <= z(187) <= 1
 0 <= z(188) <= 1
 0 <= z(189) <= 1
 0 <= z(190) <= 1
 0 <= z(191) <= 1
 0 <= z(192) <= 1
 0 <= z(193) <= 1
 0 <= z(194) <= 1
 0 <= z(195) <= 1
 0 <= z(196) <= 1
 0 <= z(197) <= 1
 0 <= z(198) <= 1
 0 <= z(199) <= 1
 0 <= z(200) <= 1
 0 <= z(201) <= 1
 0 <= z(202) <= 1
 0 <= z(203) <= 1
 0 <= z(204) <= 1
 0 <= z(205) <= 1
 0 <= z(206) <= 1
 0 <= z(207) <= 1
 0 <= z(208) <= 1
 0 <= z(209) <= 1
 0 <= z(210) <= 1
 0 <= z(211) <= 1
 0 <= z(212) <= 1
 0 <= z(213) <= 1
 0 <= z(214) <= 1
 0 <= z(215) <= 1
 0 <= z(216) <= 1
 0 <= z(217) <= 1
 0 <= z(218) <= 1
 0 <= z(219) <= 1
 0 <= z(220) <= 1
 0 <= z(221) <= 1
 0 <= z(222) <= 1
 0 <= z(223) <= 1
 0 <= z(224) <= 1
 0 <= z(225) <= 1
 0 <= z(226) <= 1
 0 <= z(227) <= 1
 0 <= z(228) <= 1
 0 <= z(229) <= 1
 0 <= z(230) <= 1
 0 <= z(231) <= 1
 0 <= z(232) <= 1
 0 <= z(233) <= 1
 0 <= z(234) <= 1
 0 <= z(235) <= 1
 0 <= z(236) <= 1
 0 <= z(237) <= 1
 0 <= z(238) <= 1
 0 <= z(239) <= 1
 0 <= z(240) <= 1
 0 <= z(241) <= 1
 0 <= z(242) <= 1
 0 <= z(243) <= 1
 0 <= z(244) <= 1
 0 <= z(245) <= 1
 0 <= z(246) <= 1
 0 <= z(247) <= 1
 0 <= z(248) <= 1
 0 <= z(249) <= 1
 0 <= z(250) <= 1
 0 <= z(251) <= 1
 0 <= z(252) <= 1
 0 <= z(253) <= 1
 0 <= z(254) <= 1
 0 <= z(255) <= 1
 0 <= z(256) <= 1
 0 <= z(257) <= 1
 0 <= z(258) <= 1
 0 <= z(259) <= 1
 0 <= z(260) <= 1
 0 <= z(261) <= 1
 0 <= z(262) <= 1
 0 <= z(263) <= 1
 0 <= z(264) <= 1
 0 <= z(265) <= 1
 0 <= z(266) <= 1
 0 <= z(267) <= 1
 0 <= z(268) <= 1
 0 <= z(269) <= 1
 0 <= z(270) <= 1
 0 <= z(271) <= 1
 0 <= z(272) <= 1
 0 <= z(273) <= 1
 0 <= z(274) <= 1
 0 <= z(275) <= 1
 0 <= z(276) <= 1
 0 <= z(277) <= 1
 0 <= z(278) <= 1
 0 <= z(279) <= 1
 0 <= z(280) <= 1
 0 <= z(281) <= 1
 0 <= z(282) <= 1
 0 <= z(283) <= 1
 0 <= z(284) <= 1
 0 <= z(285) <= 1
 0 <= z(286) <= 1
 0 <= z(287) <= 1
 0 <= z(288) <= 1
 0 <= z(289) <= 1
 0 <= z(290) <= 1
 0 <= z(291) <= 1
 0 <= z(292) <= 1
 0 <= z(293) <= 1
 0 <= z(294) <= 1
 0 <= z(295) <= 1
 0 <= z(296) <= 1
 0 <= z(297) <= 1
 0 <= z(298) <= 1
 0 <= z(299) <= 1
 0 <= z(300) <= 1
 0 <= z(301) <= 1
 0 <= z(302) <= 1
 0 <= z(303) <= 1
 0 <= z(304) <= 1
 0 <= z(305) <= 1
 0 <= z(306) <= 1
 0 <= z(307) <= 1
 0 <= z(308) <= 1
 0 <= z(309) <= 1
 0 <= z(310) <= 1
 0 <= z(311) <= 1
 0 <= z(312) <= 1
 0 <= z(313) <= 1
 0 <= z(314) <= 1
 0 <= z(315) <= 1
 0 <= z(316) <= 1
 0 <= z(317) <= 1
 0 <= z(318) <= 1
 0 <= z(319) <= 1
 0 <= z(320) <= 1
 0 <= z(321) <= 1
 0 <= z(322) <= 1
 0 <= z(323) <= 1
 0 <= z(324) <= 1
 0 <= z(325) <= 1
 0 <= z(326) <= 1
 0 <= z(327) <= 1
 0 <= z(328) <= 1
 0 <= z(329) <= 1
 0 <= z(330) <= 1
 0 <= z(331) <= 1
 0 <= z(332) <= 1
 0 <= z(333) <= 1
 0 <= z(334) <= 1
 0 <= z(335) <= 1
 0 <= z(336) <= 1
 0 <= z(337) <= 1
 0 <= z(338) <= 1
 0 <= z(339) <= 1
 0 <= z(340) <= 1
 0 <= z(341) <= 1
 0 <= z(342) <= 1
 0 <= z(343) <= 1
 0 <= z(344) <= 1
 0 <= z(345) <= 1
 0 <= z(346) <= 1
 0 <= z(347) <= 1
 0 <= z(348) <= 1
 0 <= z(349) <= 1
 0 <= z(350) <= 1
 0 <= z(351) <= 1
 0 <= z(352) <= 1
 0 <= z(353) <= 1
 0 <= z(354) <= 1
 0 <= z(355) <= 1
 0 <= z(356) <= 1
 0 <= z(357) <= 1
 0 <= z(358) <= 1
 0 <= z(359) <= 1
 0 <= z(360) <= 1
 0 <= z(361) <= 1
 0 <= z(362) <= 1
 0 <= z(363) <= 1
 0 <= z(364) <= 1
 0 <= z(365) <= 1
 0 <= z(366) <= 1
 0 <= z(367) <= 1
 0 <= z(368) <= 1
 0 <= z(369) <= 1
 0 <= z(370) <= 1
 0 <= z(371) <= 1
 0 <= z(372) <= 1
 0 <= z(373) <= 1
 0 <= z(374) <= 1
 0 <= z(375) <= 1
 0 <= z(376) <= 1
 0 <= z(377) <= 1
 0 <= z(378) <= 1
 0 <= z(379) <= 1
 0 <= z(380) <= 1
 0 <= z(381) <= 1
 0 <= z(382) <= 1
 0 <= z(383) <= 1
 0 <= z(384) <= 1
 0 <= z(385) <= 1
 0 <= z(386) <= 1
 0 <= z(387) <= 1
 0 <= z(388) <= 1
 0 <= z(389) <= 1
 0 <= z(390) <= 1
 0 <= z(391) <= 1
 0 <= z(392) <= 1
 0 <= z(393) <= 1
 0 <= z(394) <= 1
 0 <= z(395) <= 1
 0 <= z(396) <= 1
 0 <= z(397) <= 1
 0 <= z(398) <= 1
 0 <= z(399) <= 1
 0 <= z(400) <= 1
 0 <= z(401) <= 1
 0 <= z(402) <= 1
 0 <= z(403) <= 1
 0 <= z(404) <= 1
 0 <= z(405) <= 1
 0 <= z(406) <= 1
 0 <= z(407) <= 1
 0 <= z(408) <= 1
 0 <= z(409) <= 1
 0 <= z(410) <= 1
 0 <= z(411) <= 1
 0 <= z(412) <= 1
 0 <= z(413) <= 1
 0 <= z(414) <= 1
 0 <= z(415) <= 1
 0 <= z(416) <= 1
 0 <= z(417) <= 1
 0 <= z(418) <= 1
 0 <= z(419) <= 1
 0 <= z(420) <= 1
 0 <= z(421) <= 1
 0 <= z(422) <= 1
 0 <= z(423) <= 1
 0 <= z(424) <= 1
 0 <= z(425) <= 1
 0 <= z(426) <= 1
 0 <= z(427) <= 1
 0 <= z(428) <= 1
 0 <= z(429) <= 1
 0 <= z(430) <= 1
 0 <= z(431) <= 1
 0 <= z(432) <= 1
 0 <= z(433) <= 1
 0 <= z(434) <= 1
 0 <= z(435) <= 1
 0 <= z(436) <= 1
 0 <= z(437) <= 1
 0 <= z(438) <= 1
 0 <= z(439) <= 1
 0 <= z(440) <= 1
 0 <= z(441) <= 1
 0 <= z(442) <= 1
 0 <= z(443) <= 1
 0 <= z(444) <= 1
 0 <= z(445) <= 1
 0 <= z(446) <= 1
 0 <= z(447) <= 1
 0 <= z(448) <= 1
 0 <= z(449) <= 1
 0 <= z(450) <= 1
 0 <= z(451) <= 1
 0 <= z(452) <= 1
 0 <= z(453) <= 1
 0 <= z(454) <= 1
 0 <= z(455) <= 1
 0 <= z(456) <= 1
 0 <= z(457) <= 1
 0 <= z(458) <= 1
 0 <= z(459) <= 1
 0 <= z(460) <= 1
 0 <= z(461) <= 1
 0 <= z(462) <= 1
 0 <= z(463) <= 1
 0 <= z(464) <= 1
 0 <= z(465) <= 1
 0 <= z(466) <= 1
 0 <= z(467) <= 1
 0 <= z(468) <= 1
 0 <= z(469) <= 1
 0 <= z(470) <= 1
 0 <= z(471) <= 1
 0 <= z(472) <= 1
 0 <= z(473) <= 1
 0 <= z(474) <= 1
 0 <= z(475) <= 1
 0 <= z(476) <= 1
 0 <= z(477) <= 1
 0 <= z(478) <= 1
 0 <= z(479) <= 1
 0 <= z(480) <= 1
 0 <= z(481) <= 1
 0 <= z(482) <= 1
 0 <= z(483) <= 1
 0 <= z(484) <= 1
 0 <= z(485) <= 1
 0 <= z(486) <= 1
 0 <= z(487) <= 1
 0 <= z(488) <= 1
 0 <= z(489) <= 1
 0 <= z(490) <= 1
 0 <= z(491) <= 1
 0 <= z(492) <= 1
 0 <= z(493) <= 1
 0 <= z(494) <= 1
 0 <= z(495) <= 1
 0 <= z(496) <= 1
 0 <= z(497) <= 1
 0 <= z(498) <= 1
 0 <= z(499) <= 1
 0 <= z(500) <= 1
 0 <= z(501) <= 1
 0 <= z(502) <= 1
 0 <= z(503) <= 1
 0 <= z(504) <= 1
 0 <= z(505) <= 1
 0 <= z(506) <= 1
 0 <= z(507) <= 1
 0 <= z(508) <= 1
 0 <= z(509) <= 1
 0 <= z(510) <= 1
 0 <= z(511) <= 1
 0 <= z(512) <= 1
 0 <= z(513) <= 1
 0 <= z(514) <= 1
 0 <= z(515) <= 1
 0 <= z(516) <= 1
 0 <= z(517) <= 1
 0 <= z(518) <= 1
 0 <= z(519) <= 1
 0 <= z(520) <= 1
 0 <= z(521) <= 1
 0 <= z(522) <= 1
 0 <= z(523) <= 1
 0 <= z(524) <= 1
 0 <= z(525) <= 1
 0 <= z(526) <= 1
 0 <= z(527) <= 1
 0 <= z(528) <= 1
 0 <= z(529) <= 1
 0 <= z(530) <= 1
 0 <= z(531) <= 1
 0 <= z(532) <= 1
 0 <= z(533) <= 1
 0 <= z(534) <= 1
 0 <= z(535) <= 1
 0 <= z(536) <= 1
 0 <= z(537) <= 1
 0 <= z(538) <= 1
 0 <= z(539) <= 1
 0 <= z(540) <= 1
 0 <= z(541) <= 1
 0 <= z(542) <= 1
 0 <= z(543) <= 1
 0 <= z(544) <= 1
 0 <= z(545) <= 1
 0 <= z(546) <= 1
 0 <= z(547) <= 1
 0 <= z(548) <= 1
 0 <= z(549) <= 1
 0 <= z(550) <= 1
 0 <= z(551) <= 1
 0 <= z(552) <= 1
 0 <= z(553) <= 1
 0 <= z(554) <= 1
 0 <= z(555) <= 1
 0 <= z(556) <= 1
 0 <= z(557) <= 1
 0 <= z(558) <= 1
 0 <= z(559) <= 1
 0 <= z(560) <= 1
 0 <= z(561) <= 1
 0 <= z(562) <= 1
 0 <= z(563) <= 1
 0 <= z(564) <= 1
 0 <= z(565) <= 1
 0 <= z(566) <= 1
 0 <= z(567) <= 1
 0 <= z(568) <= 1
 0 <= z(569) <= 1
 0 <= z(570) <= 1
 0 <= z(571) <= 1
 0 <= z(572) <= 1
 0 <= z(573) <= 1
 0 <= z(574) <= 1
 0 <= z(575) <= 1
 0 <= z(576) <= 1
 0 <= z(577) <= 1
 0 <= z(578) <= 1
 0 <= z(579) <= 1
 0 <= z(580) <= 1
 0 <= z(581) <= 1
 0 <= z(582) <= 1
 0 <= z(583) <= 1
 0 <= z(584) <= 1
 0 <= z(585) <= 1
 0 <= z(586) <= 1
 0 <= z(587) <= 1
 0 <= z(588) <= 1
 0 <= z(589) <= 1
 0 <= z(590) <= 1
 0 <= z(591) <= 1
 0 <= z(592) <= 1
 0 <= z(593) <= 1
 0 <= z(594) <= 1
 0 <= z(595) <= 1
 0 <= z(596) <= 1
 0 <= z(597) <= 1
 0 <= z(598) <= 1
 0 <= z(599) <= 1
 0 <= z(600) <= 1
 0 <= z(601) <= 1
 0 <= z(602) <= 1
 0 <= z(603) <= 1
 0 <= z(604) <= 1
 0 <= z(605) <= 1
 0 <= z(606) <= 1
 0 <= z(607) <= 1
 0 <= z(608) <= 1
 0 <= z(609) <= 1
 0 <= z(610) <= 1
 0 <= z(611) <= 1
 0 <= z(612) <= 1
 0 <= z(613) <= 1
 0 <= z(614) <= 1
 0 <= z(615) <= 1
 0 <= z(616) <= 1
 0 <= z(617) <= 1
 0 <= z(618) <= 1
 0 <= z(619) <= 1
 0 <= z(620) <= 1
 0 <= z(621) <= 1
 0 <= z(622) <= 1
 0 <= z(623) <= 1
 0 <= z(624) <= 1
 0 <= z(625) <= 1
 0 <= z(626) <= 1
 0 <= z(627) <= 1
 0 <= z(628) <= 1
 0 <= z(629) <= 1
 0 <= z(630) <= 1
 0 <= z(631) <= 1
 0 <= z(632) <= 1
 0 <= z(633) <= 1
 0 <= z(634) <= 1
 0 <= z(635) <= 1
 0 <= z(636) <= 1
 0 <= z(637) <= 1
 0 <= z(638) <= 1
 0 <= z(639) <= 1
 0 <= z(640) <= 1
 0 <= z(641) <= 1
 0 <= z(642) <= 1
 0 <= z(643) <= 1
 0 <= z(644) <= 1
 0 <= z(645) <= 1
 0 <= z(646) <= 1
 0 <= z(647) <= 1
 0 <= z(648) <= 1
 0 <= z(649) <= 1
 0 <= z(650) <= 1
 0 <= z(651) <= 1
 0 <= z(652) <= 1
 0 <= z(653) <= 1
 0 <= z(654) <= 1
 0 <= z(655) <= 1
 0 <= z(656) <= 1
 0 <= z(657) <= 1
 0 <= z(658) <= 1
 0 <= z(659) <= 1
 0 <= z(660) <= 1
 0 <= z(661) <= 1
 0 <= z(662) <= 1
 0 <= z(663) <= 1
 0 <= z(664) <= 1
 0 <= z(665) <= 1
 0 <= z(666) <= 1
 0 <= z(667) <= 1
 0 <= z(668) <= 1
 0 <= z(669) <= 1
 0 <= z(670) <= 1
 0 <= z(671) <= 1
 0 <= z(672) <= 1
 0 <= z(673) <= 1
 0 <= z(674) <= 1
 0 <= z(675) <= 1
Integers
r(0) r(1) r(2) r(3) r(4) r(5) r(6) r(7) r(8) r(9) 
r(10) r(11) r(12) r(13) r(14) r(15) r(16) r(17) r(18) r(19) 
r(20) r(21) r(22) r(23) r(24) r(25) z(0) z(1) z(2) z(3) 
z(4) z(5) z(6) z(7) z(8) z(9) z(10) z(11) z(12) z(13) 
z(14) z(15) z(16) z(17) z(18) z(19) z(20) z(21) z(22) z(23) 
z(24) z(25) z(26) z(27) z(28) z(29) z(30) z(31) z(32) z(33) 
z(34) z(35) z(36) z(37) z(38) z(39) z(40) z(41) z(42) z(43) 
z(44) z(45) z(46) z(47) z(48) z(49) z(50) z(51) z(52) z(53) 
z(54) z(55) z(56) z(57) z(58) z(59) z(60) z(61) z(62) z(63) 
z(64) z(65) z(66) z(67) z(68) z(69) z(70) z(71) z(72) z(73) 
z(74) z(75) z(76) z(77) z(78) z(79) z(80) z(81) z(82) z(83) 
z(84) z(85) z(86) z(87) z(88) z(89) z(90) z(91) z(92) z(93) 
z(94) z(95) z(96) z(97) z(98) z(99) z(100) z(101) z(102) z(103) 
z(104) z(105) z(106) z(107) z(108) z(109) z(110) z(111) z(112) z(113) 
z(114) z(115) z(116) z(117) z(118) z(119) z(120) z(121) z(122) z(123) 
z(124) z(125) z(126) z(127) z(128) z(129) z(130) z(131) z(132) z(133) 
z(134) z(135) z(136) z(137) z(138) z(139) z(140) z(141) z(142) z(143) 
z(144) z(145) z(146) z(147) z(148) z(149) z(150) z(151) z(152) z(153) 
z(154) z(155) z(156) z(157) z(158) z(159) z(160) z(161) z(162) z(163) 
z(164) z(165) z(166) z(167) z(168) z(169) z(170) z(171) z(172) z(173) 
z(174) z(175) z(176) z(177) z(178) z(179) z(180) z(181) z(182) z(183) 
z(184) z(185) z(186) z(187) z(188) z(189) z(190) z(191) z(192) z(193) 
z(194) z(195) z(196) z(197) z(198) z(199) z(200) z(201) z(202) z(203) 
z(204) z(205) z(206) z(207) z(208) z(209) z(210) z(211) z(212) z(213) 
z(214) z(215) z(216) z(217) z(218) z(219) z(220) z(221) z(222) z(223) 
z(224) z(225) z(226) z(227) z(228) z(229) z(230) z(231) z(232) z(233) 
z(234) z(235) z(236) z(237) z(238) z(239) z(240) z(241) z(242) z(243) 
z(244) z(245) z(246) z(247) z(248) z(249) z(250) z(251) z(252) z(253) 
z(254) z(255) z(256) z(257) z(258) z(259) z(260) z(261) z(262) z(263) 
z(264) z(265) z(266) z(267) z(268) z(269) z(270) z(271) z(272) z(273) 
z(274) z(275) z(276) z(277) z(278) z(279) z(280) z(281) z(282) z(283) 
z(284) z(285) z(286) z(287) z(288) z(289) z(290) z(291) z(292) z(293) 
z(294) z(295) z(296) z(297) z(298) z(299) z(300) z(301) z(302) z(303) 
z(304) z(305) z(306) z(307) z(308) z(309) z(310) z(311) z(312) z(313) 
z(314) z(315) z(316) z(317) z(318) z(319) z(320) z(321) z(322) z(323) 
z(324) z(325) z(326) z(327) z(328) z(329) z(330) z(331) z(332) z(333) 
z(334) z(335) z(336) z(337) z(338) z(339) z(340) z(341) z(342) z(343) 
z(344) z(345) z(346) z(347) z(348) z(349) z(350) z(351) z(352) z(353) 
z(354) z(355) z(356) z(357) z(358) z(359) z(360) z(361) z(362) z(363) 
z(364) z(365) z(366) z(367) z(368) z(369) z(370) z(371) z(372) z(373) 
z(374) z(375) z(376) z(377) z(378) z(379) z(380) z(381) z(382) z(383) 
z(384) z(385) z(386) z(387) z(388) z(389) z(390) z(391) z(392) z(393) 
z(394) z(395) z(396) z(397) z(398) z(399) z(400) z(401) z(402) z(403) 
z(404) z(405) z(406) z(407) z(408) z(409) z(410) z(411) z(412) z(413) 
z(414) z(415) z(416) z(417) z(418) z(419) z(420) z(421) z(422) z(423) 
z(424) z(425) z(426) z(427) z(428) z(429) z(430) z(431) z(432) z(433) 
z(434) z(435) z(436) z(437) z(438) z(439) z(440) z(441) z(442) z(443) 
z(444) z(445) z(446) z(447) z(448) z(449) z(450) z(451) z(452) z(453) 
z(454) z(455) z(456) z(457) z(458) z(459) z(460) z(461) z(462) z(463) 
z(464) z(465) z(466) z(467) z(468) z(469) z(470) z(471) z(472) z(473) 
z(474) z(475) z(476) z(477) z(478) z(479) z(480) z(481) z(482) z(483) 
z(484) z(485) z(486) z(487) z(488) z(489) z(490) z(491) z(492) z(493) 
z(494) z(495) z(496) z(497) z(498) z(499) z(500) z(501) z(502) z(503) 
z(504) z(505) z(506) z(507) z(508) z(509) z(510) z(511) z(512) z(513) 
z(514) z(515) z(516) z(517) z(518) z(519) z(520) z(521) z(522) z(523) 
z(524) z(525) z(526) z(527) z(528) z(529) z(530) z(531) z(532) z(533) 
z(534) z(535) z(536) z(537) z(538) z(539) z(540) z(541) z(542) z(543) 
z(544) z(545) z(546) z(547) z(548) z(549) z(550) z(551) z(552) z(553) 
z(554) z(555) z(556) z(557) z(558) z(559) z(560) z(561) z(562) z(563) 
z(564) z(565) z(566) z(567) z(568) z(569) z(570) z(571) z(572) z(573) 
z(574) z(575) z(576) z(577) z(578) z(579) z(580) z(581) z(582) z(583) 
z(584) z(585) z(586) z(587) z(588) z(589) z(590) z(591) z(592) z(593) 
z(594) z(595) z(596) z(597) z(598) z(599) z(600) z(601) z(602) z(603) 
z(604) z(605) z(606) z(607) z(608) z(609) z(610) z(611) z(612) z(613) 
z(614) z(615) z(616) z(617) z(618) z(619) z(620) z(621) z(622) z(623) 
z(624) z(625) z(626) z(627) z(628) z(629) z(630) z(631) z(632) z(633) 
z(634) z(635) z(636) z(637) z(638) z(639) z(640) z(641) z(642) z(643) 
z(644) z(645) z(646) z(647) z(648) z(649) z(650) z(651) z(652) z(653) 
z(654) z(655) z(656) z(657) z(658) z(659) z(660) z(661) z(662) z(663) 
z(664) z(665) z(666) z(667) z(668) z(669) z(670) z(671) z(672) z(673) 
z(674) z(675) 
End
